 &control
    calculation='cp',
    restart_mode='restart',
    prefix='NAME'
    nstep=2000000, 
    iprint=10,
    isave=150,
    dt=5.0,
    ndr=61,
    ndw=61,
    pseudo_dir = '/home/mrusishv/pseudo'
    outdir='./out_dir'
    wf_collect = .true.
    max_seconds=43000
 /
 &system
    ibrav=8,
    celldm(1) = 33.993338591
    celldm(2) = 1.082485804
    celldm(3) = 0.9128544638
    nat=565,
    ntyp=3,
    tot_charge=0,
    ecutwfc=25.0,
    ecutrho=200.0,
    nr1b=24,
    nr2b=24,
    nr3b=24,
    vdw_corr='grimme-d2'
 /
 &electrons
    electron_dynamics='verlet',
    emass=600.,
    emass_cutoff = 4.d0,
    ortho_max=2000
 !   electron_velocities = 'zero'
 /
 &ions
    ion_dynamics = 'verlet',
    ion_damping = 0.0,
    greasp=1.0,
 !   ion_temperature = 'not_controlled',
 !   ion_velocities='zero'
 !   ion_velocities='from_input'
    ion_temperature = 'nose',
    fnosep = 60.0,
    nhptyp=1,
    ion_radius(1)=1.0,
    ion_radius(2)=1.0,
    ion_radius(3)=0.8
 /
ATOMIC_SPECIES
 C  12.0d0   C.pbe-rrkjus.UPF
 O  12.0d0   O.pbe-rrkjus.UPF
 H  12.0d0   H.pbe-rrkjus.UPF
ATOMIC_POSITIONS {angstrom}
 C  9.3591073  16.1146426  13.0074900
 C  8.2175587  16.8225865  13.0102347
 C  7.2395520  16.6118675  12.0231973
 C  7.4996469  15.7339564  10.9638279
 C  8.6695020  14.9739928  10.9800681
 C  9.5546235  15.1867279  12.0184884
 C 10.1638804  13.3634057   9.9804490
 C  8.9667054  14.0723917   9.9118929
 C 11.1456782  13.6324025  11.0550908
 C 12.3963813  13.0052378  11.1900929
 C 13.0650952  13.2017463  12.4390412
 C 14.2806467  12.6061867  12.6835146
 C 14.9780391  11.8547864  11.6667749
 C 14.3109083  11.7528681  10.3667384
 C 13.0642760  12.2549537  10.1201403
 C  9.9116210  11.1632880   9.1645908
 C 10.2018567  10.4261180   7.8665410
 C  9.8641984   8.9169035   7.9624890
 C 10.1934094   9.1706320  10.4578273
 C 10.5519975   8.3263097   9.1882052
 C 10.9562533   8.6787556  11.6610333
 O 10.7921283  14.5387355  11.9997166
 O 16.0727779  11.2731853  11.8010530
 O 10.4462085  12.4350590   8.9743068
 O  6.5747413  15.6004638   9.9676977
 O  7.9985139  17.7059834  14.0655562
 H 14.6924327  12.6695197  13.6853361
 O 10.5918920  10.4881264  10.1964031
 O 10.5255154   9.4323958  12.8287812
 O 10.0702461   6.9811352   9.3377723
 O 10.2785916   8.2463942   6.8130662
 O  9.3113140  10.9446498   6.8229293
 H 10.0994716  16.2532270  13.7912146 
 H  6.3198926  17.1890280  11.9714133
 H  8.2456493  13.8026065   9.1473545
 H 12.5243639  13.6849697  13.2460957
 H 12.6527373  12.2787038   9.1164983 
 H  5.7568414  16.1206250  10.0633443
 H  7.1680157  18.2062388  13.9723159
 H  8.8407229  11.2022236   9.4129178
 H 11.2354394  10.5179979   7.5231551
 H  8.7879544   8.7829315   8.0981330
 H  9.1101595   9.1879668  10.6024584
 H 11.6284083   8.3894383   9.0093098
 H 10.7608911   7.6320897  11.9079782
 H 12.0299445   8.7727336  11.4793624
 H 10.8002435  10.3659102  12.7869329
 H 10.8363753   6.4795836   9.6696883
 H 10.1444558   7.2886997   6.9292926
 H  9.6241747  11.8273265   6.5551996
 O 15.0277341  11.0900344   9.3953703
 H 15.8301168  10.7564026   9.8353196
 O  9.9453950   7.8343298  15.7659599
 H 10.7408827   7.5520661  15.3145639
 H 10.2157336   7.9521300  16.6766036
 O  1.7527583   7.6619285  15.3925876
 H  2.2121695   7.1462128  14.7298580
 H  2.2114618   7.4654212  16.2094155
 O 13.2855198  17.6114890   1.6806484
 H 13.1024837  18.4724852   1.3045962
 H 12.6165413  17.4978687   2.3557706
 O  7.4426018  15.5126937   3.0960610
 H  6.7594258  15.1983274   3.6882402
 H  7.3854770  16.4666946   3.1494550
 O 16.8801303  13.0896824   8.4665850
 H 16.1944681  12.4639241   8.2330778
 H 17.6686638  12.5558080   8.5636671
 O  9.9596052   2.8335404   6.1199049
 H  9.0319543   2.6175721   6.0247568
 H 10.3693860   2.4834605   5.3288577
 O 10.9513127   1.7063667   3.9257614
 H 10.2972550   1.7605395   3.2289790
 H 11.4542200   2.5168674   3.8457326
 O  1.9810348  15.1318988  15.1990794
 H  1.4343121  14.4117228  14.8849574
 H  1.8781041  15.1133725  16.1505487
 O 13.5447183   5.2257928   6.0788377
 H 14.2073977   5.6156276   5.5086476
 H 13.9725992   4.4546492   6.4509765
 O  2.3449415  14.2528576  11.4201193
 H  2.1774744  14.2459728  10.4777079
 H  1.9340141  13.4506183  11.7422723
 O  4.8351173   4.4278562   9.3824946
 H  4.9391441   4.2746584  10.3216116
 H  5.5958159   4.0041177   8.9849834
 O 18.1760184   0.9417879   9.2955620
 H 17.8746288   0.4558427   8.5279336
 H 17.6710794   1.7547783   9.2778129
 O 11.2346420  13.1846183   2.4342191
 H 11.2182192  12.5830354   1.6898669
 H 12.1591820  13.4083472   2.5410041
 O 17.6707339   9.2732936   2.1746386
 H 17.6031412   8.3351128   2.3520642
 H 16.7638015   9.5661503   2.0855299
 O 16.6361210   8.3648382   6.8683993
 H 17.0773224   8.8991406   6.2080252
 H 15.7997830   8.1296986   6.4665536
 O 12.4218347  15.5237941  15.7948130
 H 12.6670210  16.2884487  15.2738342
 H 11.7657465  15.8529312  16.4091817
 O 13.2484756   2.9455117   9.9791213
 H 12.9920111   2.7341838  10.8767840
 H 12.5264395   2.6209377   9.4410252
 O  0.3681688  17.8685567   0.4329194
 H  0.9717274  18.0667882  -0.2830786
 H -0.4186756  18.3744084   0.2298877
 O  4.6659521   4.7778285  16.0212739
 H  5.1307511   3.9410603  16.0248323
 H  3.7665077   4.5532116  16.2595571
 O  1.1003792  11.0441381   0.6380953
 H  1.3514888  10.4128842   1.3124056
 H  0.1705091  10.8752474   0.4862747
 O  4.6682068  10.5601729  12.3579763
 H  5.1684420   9.9556395  12.9061878
 H  4.7948427  11.4158676  12.7678320 
 O  5.8609923   6.1318840   1.9480645
 H  5.2956410   6.2016176   2.7173154
 H  5.2810626   5.8235079   1.2517760
 O 16.0000462  11.9254952   5.7139342
 H 15.0726572  12.0107484   5.4927704
 H 16.4338504  12.6001734   5.1915788
 O  7.4210208  13.3833141  14.8638309
 H  7.9405588  13.4807628  15.6618383
 H  7.9780397  12.8727194  14.2762469
 O  2.3834885   8.9162251   9.8537631
 H  1.9971509   8.4282788  10.5810068
 H  2.7674801   8.2436530   9.2912428
 O 13.6065033   9.9397159   7.2769862
 H 14.1864689  10.2472327   7.9736247
 H 13.4493768  10.7141701   6.7368346
 O 11.5945321  12.6715740  15.4166455
 H 11.8263761  13.5877538  15.5686149
 H 10.7522667  12.7096482  14.9634666
 O  7.2004458   7.2614063  15.6958026
 H  8.1202664   7.3869336  15.9290508
 H  6.7554898   8.0293337  16.0543183
 O  1.5934399  15.4149957   8.8105665
 H  0.6855481  15.2563959   8.5520894
 H  1.5986582  16.3192938   9.1243332
 O  5.5788788   2.4097789  12.7804405
 H  6.0132350   3.2271473  12.5365646
 H  4.7759790   2.4004946  12.2593862
 O  4.5913837  12.0154975   1.5964679
 H  4.8091786  12.2730099   2.4922829
 H  4.7297049  12.8087273   1.0788913
 O  3.5685695   6.7147415   8.5758617
 H  2.7880901   6.5884214   8.0363000
 H  3.9146651   5.8319602   8.7068072
 O 13.8160720   7.1295328   7.7999182
 H 13.8045394   8.0843052   7.7327726
 H 13.4822427   6.8260108   6.9557237
 O 12.8591725   5.9435618  10.0779918
 H 13.0936261   5.0320420   9.9036505
 H 13.1193030   6.4135196   9.2857143
 O  4.8469890  14.9390655   1.6332049
 H  5.6436329  15.2395475   1.1958253
 H  4.7135410  15.5654165   2.3446175
 O  9.4361689  19.0358340   8.7784297
 H 10.2176741  18.4990968   8.9103187
 H  9.0283126  18.6756176   7.9909468
 O  1.8486678  13.8504083   1.3440501
 H  2.7348628  13.6542911   1.6480703
 H  1.4403215  12.9926401   1.2269224
 O  7.6548661   7.1279245   4.7347571
 H  7.8156048   6.6380618   3.9282651
 H  8.5275238   7.3624946   5.0504743
 O  3.3680365   7.1135688  11.7773276
 H  3.7897927   6.8974749  12.6089868
 H  4.0011604   6.8461303  11.1110975
 O 16.7757860   7.1354999  12.1319852
 H 17.3612709   6.4572058  11.7953008
 H 17.0341849   7.2421254  13.0474593
 O  5.9500444   2.5322719  16.5323172
 H  6.2167511   1.9845331  15.7940208
 H  5.0474611   2.2690782  16.7120513
 O  1.0291569   5.7324570  11.3193304
 H  1.8665902   6.1947008  11.3549383
 H  0.6954611   5.9087922  10.4396800
 O 12.7887291   6.8903392  15.1295797
 H 13.3566182   7.3464000  15.7506612
 H 13.0479664   7.2308476  14.2733777
 O  3.8715838  13.5506259   8.2610043
 H  3.7968971  13.0199096   9.0540957
 H  3.3291164  14.3197227   8.4355069
 O 16.1387681  10.0464217  14.2082856
 H 16.6080884   9.2190529  14.1013693
 H 16.2774900  10.5090035  13.3818437
 O 15.2688114  16.0702813   0.3008571
 H 15.5303703  15.5254552  -0.4414254
 H 14.3185187  16.1488593   0.2171851
 O  7.4735236  11.6035736  12.0524156
 H  6.6806855  11.1146323  12.2728153
 H  7.2097689  12.1750890  11.3312807
 O  4.8779499  15.4521226   4.3790709
 H  4.0246682  15.7298394   4.7122609
 H  5.2520174  14.9270550   5.0866083
 O 17.2407625   7.5365793  14.6031413
 H 18.1258535   7.4865364  14.9641696
 H 16.6842124   7.1494834  15.2788932
 O 10.6229564   5.6887155   6.1690609
 H 10.2427002   4.8113804   6.1252423
 H 11.5643544   5.5377652   6.2540062
 O 17.5534079   7.2080441   9.3738039
 H 17.2852544   7.8093009   8.6789544
 H 17.1630591   7.5713095  10.1687239
 O 17.1385451  15.0294162   1.9814435
 H 18.0848384  14.9133601   1.8960522
 H 16.9212918  15.7055887   1.3397088
 O 17.5688653  18.3678497  12.6041271
 H 17.5970043  17.4506807  12.3316548
 H 16.6394567  18.5957859  12.5822972
 O  6.9753146   0.1747140   1.3512204
 H  6.5061422   0.9355105   1.0087326
 H  6.3662162  -0.2218550   1.9740879
 O  7.0538078   4.5546966  11.7449074
 H  7.0774828   5.0079251  10.9021410
 H  7.7760822   4.9373613  12.2430230
 O 12.1786348  10.2450532  16.4536046
 H 11.9618143  11.1368807  16.1818244
 H 13.1256832  10.1806755  16.3303703
 O  4.2028790  17.9252276  15.6352767
 H  3.6047990  17.3373007  15.1738938
 H  4.8587526  17.3448388  16.0215545
 O  7.7130029   4.4896859  15.2821456
 H  7.3196849   4.0893630  16.0575644
 H  7.3679821   5.3824891  15.2724038
 O 16.4280370  14.6240033  14.8531003
 H 16.4852207  15.0585942  14.0021640
 H 17.2278388  14.1011279  14.9092259
 O 10.9992050   1.8785847  12.3252215
 H 11.1080079   2.5959258  12.9495736
 H 10.2369276   1.3961100  12.6451952
 O  2.6838446   7.0686400   1.4603274
 H  3.1800098   7.8727130   1.6136848
 H  2.2800235   6.8715056   2.3054892 
 O  2.4571342  16.9549484   5.2863424
 H  1.6016375  17.1489615   5.6693776
 H  2.3044951  16.9656870   4.3414520
 O  5.5826242  13.4426395   6.3662777
 H  6.1667824  14.0552777   6.8131172
 H  4.7586473  13.5013901   6.8498503
 O 17.6324950  10.2532126   9.3499993
 H 18.0015082  10.0599435   8.4881941
 H 18.2811228   9.9179272   9.9689480
 O  6.5765502   1.2883678   5.9431113
 H  6.7054306   1.2407216   6.8903977
 H  6.6953331   2.2142970   5.7315043
 O 14.2344801   8.2763910   4.8926306
 H 13.3544287   8.6405621   4.7971279
 H 14.7459828   8.7025903   4.2049163
 O  8.6476188   0.5485056  12.7006859
 H  7.7858584   0.9012311  12.9224643
 H  8.6147000  -0.3634870  12.9895072
 O 10.4333972  15.5197960   5.8717144
 H  9.6113178  15.7104726   6.3234441
 H 11.1006442  15.5732160   6.5559363
 O 11.0960122   2.1171376   8.5551293
 H 10.5550191   2.2855367   7.7836372
 H 10.4679161   1.9155030   9.2487218
 O 16.0858556   1.6850731  14.9437782
 H 15.8274038   1.9217543  14.0530389
 H 15.8169739   0.7710870  15.0363196
 O  6.3791652  17.9545505   6.1262483
 H  5.5053980  17.5951292   5.9726933
 H  6.2638200  18.9022715   6.0573115
 O 15.8137649  18.6523328  16.1614587
 H 15.1383828  19.1604921  16.6107526
 H 15.5402717  17.7415081  16.2702316
 O 10.8612325   6.4300947   2.9602389
 H 10.6603384   7.3597016   2.8520521
 H 10.0204676   5.9880409   2.8421939
 O  1.3102192  10.4805188   7.1683005
 H  2.0459752  11.0605898   6.9723095
 H  0.8724140  10.3560855   6.3262347
 O 14.6716212   8.8961448  16.2134142
 H 14.9895788   9.2184829  15.3700679
 H 15.2652793   8.1786726  16.4348536
 O  5.8358061   8.3177530   9.8738656
 H  5.1192946   7.8363319   9.4602512
 H  5.4019495   9.0034739  10.3815930
 O  3.5217725   1.0471899   0.3335616
 H  3.0106913   1.7489941  -0.0695496
 H  3.3746722   0.2887731  -0.2315908
 O  3.0379630   2.3452937  11.2232228
 H  2.9366056   2.4013937  10.2730589
 H  2.1488274   2.2113605  11.5514477
 O  4.2612658  17.0011620  10.2740486
 H  4.4167402  17.8980169   9.9778884
 H  3.3089938  16.9336024  10.3436582
 O 15.2835840   2.7000070  12.6359532
 H 15.5132803   2.0597301  11.9625166
 H 15.6013598   3.5345581  12.2913160
 O 15.6706560   6.4873811   0.2112852
 H 15.8536938   5.5912816  -0.0710880
 H 14.9043564   6.4077025   0.7793240
 O  4.8131236  12.8328997  13.6816367
 H  5.6499330  12.9395417  14.1339743
 H  4.4502342  13.7175473  13.6375724
 O  8.7375328  10.4917164  15.7368592
 H  7.8315084  10.4437397  16.0419001
 H  9.0315551   9.5810462  15.7153533
 O 13.5405683   6.6115319   2.0750476
 H 12.8127160   6.1807118   1.6268768
 H 13.1224177   7.2552413   2.6469043
 O  5.4687362   5.8699921   5.4078515
 H  5.7997050   6.7493115   5.2248518
 H  5.1224716   5.9249623   6.2985316
 O  0.0277389   4.4200427   2.4739655
 H -0.6006579   4.0994507   1.8269956
 H  0.5731320   3.6596438   2.6753894
 O 10.2973903  12.9473510   5.0497730
 H 10.4756531  13.0691875   4.1172441
 H 10.3292392  13.8306826   5.4171184
 O  4.5158684   1.4716549   4.1782205
 H  4.4925265   2.3704017   3.8496764
 H  5.2177113   1.4727288   4.8291023
 O 11.4323183  16.9014482   3.6951654
 H 10.9689753  16.4826716   4.4205421
 H 10.9646106  16.6104445   2.9123511
 O  8.3651811   5.0720256   2.4936050
 H  7.5346251   5.4419575   2.1943410
 H  8.2963385   4.1379554   2.2961071
 O 15.5541312  17.1803619   3.2693409
 H 14.8623447  17.2717550   2.6141230
 H 15.9953811  16.3626727   3.0393087
 O  4.8002559   8.8677107   5.3258027
 H  5.3925950   9.3629353   4.7600123
 H  4.7488772   9.3847079   6.1297342
 O 13.2217735  14.4202024   7.4405372
 H 13.4851564  15.0313930   6.7525638
 H 13.4439448  14.8681292   8.2567684
 O  9.5445792  11.9210646  13.4933111
 H  8.8427643  11.7619372  12.8621485
 H  9.2591428  11.4697586  14.2877171
 O 17.7391424  10.0620109   5.0467858
 H 17.0111924  10.6800816   5.1124304
 H 17.6769309   9.7122106   4.1579657
 O  0.8754134  11.9843561  11.5559365
 H  1.2855272  11.2492443  12.0116217
 H -0.0288890  11.7041548  11.4146700
 O  4.8304788  18.8380551   2.4720019
 H  4.0346648  18.3081762   2.4257394
 H  4.6499158  19.4821263   3.1566924
 O  5.8066760  12.1389492   4.0644848
 H  6.3221792  11.3352269   4.1317073
 H  5.9608294  12.5923885   4.8932558
 O 13.5124850   0.6677857   0.7285965
 H 13.7074545   1.5125857   1.1342215
 H 12.8580869   0.8686774   0.0595393
 O 11.4218982   4.7903288  12.5452728
 H 12.1545282   5.2163827  12.1003422
 H 10.6422971   5.1593967  12.1302514
 O  1.2398107  19.3199588  14.3504984 
 H  0.6148303  18.9452670  13.7298235
 H  2.0972969  19.1401275  13.9649986
 O 15.6594082  12.5878298   1.2364752
 H 15.5773879  12.6722202   0.2865369
 H 16.1730198  13.3509302   1.5012633
 O  2.5176181   7.4904673   4.3005027
 H  3.2158194   8.0816100   4.5821003
 H  2.1299369   7.1721805   5.1157503
 O 15.9543476   5.1327705   7.9769861
 H 15.0792065   5.5174233   7.9279745
 H 16.4917547   5.8114681   8.3853915
 O 12.2824979  19.0305894   8.1064175
 H 12.2713922  19.9873868   8.1318596
 H 12.1773354  18.8143932   7.1799014
 O 13.6218638   3.1161784   1.7050415
 H 13.3102830   3.5365986   2.5065376
 H 13.1141961   3.5278248   1.0057186
 O  0.5490057   2.4049070  15.5039014
 H  0.8820056   1.6262003  15.0578535
 H -0.4031775   2.3209008  15.4536822
 O  1.3540996   2.0466440   2.4436061
 H  2.3085334   1.9983487   2.3892415
 H  1.0466220   1.6136281   1.6472477
 O 14.8454799   9.9804684   2.7451115
 H 14.7674965  10.9189676   2.5737353
 H 14.2659148   9.5707495   2.1028759
 O  8.9399117   1.8355285  10.0452717
 H  8.8765133   1.6018603  10.9713449
 H  9.0437770   0.9980596   9.5935088
 O 13.0953482  12.0227487   5.9358872
 H 13.1973364  12.6330721   6.6661855
 H 12.4520698  12.4401286   5.3629835
 O 13.4124238  16.4501841   9.6504681
 H 13.5130399  16.1059209  10.5379314
 H 13.6412987  17.3765806   9.7255531
 O  6.5520545  16.0110867  15.9221509
 H  6.8241342  15.4408213  15.2031225
 H  7.1828315  16.7309292  15.9087732
 O  1.4154485  17.9087367  10.2507021
 H  0.9217632  18.3728883   9.5746327
 H  0.9604849  18.1187907  11.0662493
 O 12.2679218   4.1718663   3.7324175
 H 11.6097357   4.7968285   3.4283697
 H 12.7259306   4.6301635   4.4369908
 O  6.0140785   9.5274211   0.2367784
 H  5.7984780  10.0299296   1.0224205
 H  5.3508030   9.7866192  -0.4028416
 O 10.5827018  15.6768767   1.5765665
 H 11.1113561  15.0542268   2.0756294
 H  9.8359819  15.1636839   1.2679011
 O 12.3021509  17.8577797  14.1745253
 H 12.0659912  18.7811599  14.0860409
 H 11.8450189  17.4235651  13.4543032
 O 17.8928730   0.8785253   4.9592923
 H 17.6006656   1.6822582   5.3892458
 H 18.3825986   1.1805458   4.1943189
 O  9.0367268   6.3457119  13.1645749
 H  8.7520503   6.1622311  14.0598547
 H  9.6410384   7.0828974  13.2517343
 O  2.9430651   9.9444272   2.5119031
 H  3.5011811  10.5706989   2.0509018
 H  2.6638541  10.4082541   3.3012938
 O  7.1797311   3.1370273   8.5448205
 H  7.4084965   4.0543961   8.3953790
 H  7.8619051   2.8127874   9.1328162
 O 11.2642024   0.7509411  15.6647866
 H 10.6118458   1.4087846  15.4241528
 H 10.7512759  -0.0296717  15.8740280
 O  3.5107003  19.2738877   6.1873035
 H  3.2590698  19.8397618   5.4574401
 H  3.1678494  18.4119150   5.9513202
 O  4.0676565  10.6109563  15.2995145
 H  3.2543540  10.6744115  15.8002582
 H  4.1140789  11.4338648  14.8127924
 O  3.8973612  11.3132843   9.8698597
 H  3.2361472  10.6215940   9.8941995
 H  4.3390465  11.2523151  10.7168713
 O  1.6701689   9.8808857  13.2805915
 H  2.5317653   9.7759320  12.8770222
 H  1.7607594   9.4817565  14.1458783
 O  7.6587444  10.1232455   4.7414406
 H  8.2727035  10.3979242   5.4224968
 H  7.5885448   9.1748831   4.8505857
 O 16.1597237   3.4941810   0.8690444
 H 16.1339969   2.7975278   0.2131143
 H 15.3601432   3.3710880   1.3806605
 O  6.1264071   0.3783907  14.3869774
 H  5.9154656   1.0787417  13.7695278
 H  5.3038247  -0.0981493  14.4987795
 O 12.0672532   4.9152523  16.7844768
 H 11.5166947   4.3322203  16.2618001
 H 12.2952751   5.6281040  16.1877521
 O 11.8958171   9.8260522   4.6052512
 H 11.2937689   9.4443741   5.2440717
 H 12.3280572  10.5369939   5.0784977
 O  0.6364281  12.8358924  14.6160233
 H  0.3986319  12.2239558  13.9194471
 H  1.0194702  12.2847950  15.2985204
 O 16.9404588   3.4698102   5.6618327
 H 16.7132071   4.1631188   6.2814388
 H 17.0006654   3.9144869   4.8163330
 O -0.2763630   6.7834711   3.4661318
 H  0.6175328   7.0714877   3.6511410
 H -0.1686573   5.9745183   2.9659052
 O 14.0215840   7.9973263  12.6783351
 H 14.9726865   8.0993223  12.7134450
 H 13.8579923   7.5632846  11.8410315
 O 14.5188227  18.6418409  12.2010827
 H 13.7502041  18.7379101  11.6387412
 H 14.1692410  18.3181285  13.0312843
 O  7.2399113   6.1870859   9.4790662
 H  8.0851637   6.4774504   9.1363293
 H  6.8006278   6.9938546   9.7481127
 O  8.8013401   2.3070514   1.8670103
 H  7.9684144   1.9138450   1.6065200
 H  9.3303143   2.2980473   1.0693029
 O 13.6315641  14.4881936   2.4079407
 H 13.6697859  15.2287582   1.8026845
 H 14.4754008  14.0488320   2.3024284
 O  3.7566315  15.5102772  13.1367583
 H  3.3930060  15.1010049  12.3515802
 H  3.0853045  15.3814425  13.8067983
 O 15.9686643   2.5715337   8.9159437
 H 15.9800763   3.4621738   8.5654272
 H 15.0781461   2.4559749   9.2473880
 O 14.3661131   2.3256034   6.2711418
 H 14.5168790   2.5927693   5.3644313
 H 15.2350498   2.0968554   6.6010739
 O  2.6511371   1.6067244   8.5261224
 H  1.7827060   1.3242302   8.8129258
 H  2.9124010   0.9548186   7.8757443
 O 17.3737698  13.9064106   4.4674936
 H 18.1446224  14.2274946   4.9353859
 H 17.3650079  14.4044952   3.6501400
 O  2.1834385   4.1888251   0.2851981
 H  1.8542788   4.4472679   1.1460657
 H  1.4171248   3.8384601  -0.1689379
 O  1.4016483   7.4343442   6.9796616
 H  1.5876329   8.3415137   7.2219114
 H  0.4463288   7.3874680   6.9422568
 O  9.4352876  18.5793278   0.3688393
 H  8.7077983  19.0152461   0.8126483
 H  9.1085137  17.6995027   0.1808006
 O 15.2605614   5.2738035   3.9949807
 H 14.7447239   5.5096105   3.2239174
 H 15.9815404   5.9033782   4.0025166
 O  4.4106893   7.0809213  14.3911766
 H  4.7850990   6.3950992  14.9440755
 H  4.9572808   7.8486515  14.5586873
 O  6.9673521   3.7174003   5.2431195
 H  7.7193523   4.0582762   4.7588353
 H  6.4234199   4.4864501   5.4132139
 O 17.1273635  18.1942191   7.9986533
 H 17.2641850  18.0940471   7.0565931
 H 16.3246144  17.7044852   8.1775006
 O  3.7274713  18.4905750  12.9113952
 H  3.8259596  18.8757787  12.0406771
 H  3.9708560  17.5720696  12.7958807
 O  8.0968161  16.0606655   7.0286817
 H  7.6070237  16.7457856   6.5737687
 H  7.7456101  16.0661930   7.9191061
 O 12.1587796  18.9318871  10.7904536
 H 12.3927104  19.1294602   9.8835506
 H 11.6593488  19.6951413  11.0807016
 O  4.2494678   3.5954984   6.6696554
 H  4.7088985   2.7587248   6.5991911
 H  3.9065036   3.6059269   7.5632429
 O 16.0182086  14.9657735  10.4401082
 H 16.1292853  14.2087566   9.8649393
 H 15.9201720  15.7076856   9.8432942
 O  8.4380015  13.7613005   1.2725569
 H  8.5723600  12.9943534   1.8293081
 H  8.0772184  14.4243199   1.8611762
 O 17.6665812  15.6906548  12.3328828
 H 17.0602114  15.3088498  11.6982393
 H 18.3487165  15.0279213  12.4410844
 O 17.4543973  17.7285077   5.3751461
 H 17.6747867  18.6255210   5.1240932
 H 16.8271220  17.4413325   4.7116041
 O  6.5451720   8.9158201  13.4213163
 H  7.1033794   8.4355953  12.8097441
 H  6.7033466   8.4986126  14.2681637
 O 12.2883963  18.8209796   5.4175239
 H 12.1858287  18.1647834   4.7282357
 H 12.2084763  19.6598242   4.9634486
 O  4.5560975  10.7514986   7.2861143
 H  4.8293690  11.6320700   7.0289205
 H  4.4936913  10.7892730   8.2405305
 O 16.1514237  15.6031155   7.7992981
 H 16.1828890  14.6466053   7.8174631
 H 15.7883788  15.8145235   6.9392185
 O  0.5860284   2.6765725  12.2773835
 H  0.4724224   3.5634587  11.9356842
 H  0.3590930   2.7462702  13.2046777
 O 10.1548732   3.8653447  14.9060634
 H 10.4618062   4.1589951  14.0482794
 H  9.2807272   4.2460144  14.9908635
 O 10.5759114   9.0467816   2.0019016
 H 10.8788261   9.5898179   2.7296282
 H 11.0864685   9.3473242   1.2500788
 O  4.7481606   0.1769146   9.5740783
 H  4.0746791   0.7021210   9.1418599
 H  5.5457737   0.7006160   9.4980387
 O  3.9791881   4.0723751   3.9343559
 H  4.2824794   4.9771287   3.8590753
 H  3.9304330   3.9137616   4.8770629
 O 14.2027532  16.6023573   5.8172196
 H 14.0679452  17.5428112   5.9338602
 H 14.7392004  16.5334263   5.0274698
 O  2.4793408  16.9524608   2.4144807
 H  1.8908670  17.3367557   1.7646747
 H  2.6578875  16.0717602   2.0847544
