   &CONTROL
      calculation = 'relax',
      restart_mode='from_scratch',
      prefix="ApBo_rx",
      nstep=2000,
      tprnfor = .true.,
      pseudo_dir ='../',
      outdir='./scratch1/',
      wf_collect = .true.
      forc_conv_thr = 2d-3,
      etot_conv_thr = 2d-4
   /
   &SYSTEM
      ibrav=1,
      celldm(1)=80.,
!      celldm(2)=1.0
!      celldm(3)=1.0
      nat=355,
      ntyp=4,
      tot_charge=0,
      ecutwfc=35.0,
      ecutrho=320.0
!     input_dft = 'pbe0'
      vdw_corr='grimme-d2',
      assume_isolated ='makov-payne'
!      occupations='smearing',
      degauss=0.00
   /
   &ELECTRONS
      electron_maxstep = 100,
      mixing_mode = 'plain',      
      mixing_beta = 0.3,
     conv_thr =  1.0d-8,
   /
   &IONS
      ion_dynamics='bfgs',
      upscale=1000,
   /
ATOMIC_SPECIES
 H   1.001   H.pbe-rrkjus_psl.1.0.0.UPF
 C   12.011  C.pbe-n-rrkjus_psl.1.0.0.UPF
 O   16.00   O.pbe-n-rrkjus_psl.1.0.0.UPF
 Al  26.9815 Al.pbe-nl-rrkjus_psl.1.0.0.UPF 
ATOMIC_POSITIONS (angstrom)
C           -10.7899372993        0.5046703305       -0.7936237013
C           -11.0172564580        1.4912063657       -1.7786211607
H           -12.0189622466        1.5819847205       -2.1991133189
C            -9.9583157710        2.2643068035       -2.2164847877
C            -8.6588666333        2.0959956095       -1.6670443524
C            -8.4793902753        1.0655784616       -0.7260786136
C            -9.5184587889        0.2712658588       -0.2610813449
H            -9.3361573914       -0.5294806036        0.4572562601
O            -7.2247166575        0.7868790553       -0.2700064903
C            -6.1190463288        1.4829114258       -0.6610903689
C            -6.3066178390        2.6037677683       -1.5200849926
C            -7.5540719606        2.8933951522       -2.0270765919
H            -7.7027101269        3.7199436871       -2.7217288507
O            -5.1880427183        3.3579870819       -1.7706548385
C            -5.3713597255        4.6928279344       -2.1830441957
H            -6.1643108781        5.1795923548       -1.5762951210
C            -4.0253029125        5.3974646769       -2.0010880654
H            -3.2351997162        4.7694571359       -2.4533245458
C            -4.0406173123        6.7695026408       -2.6743711589
H            -4.7119035473        7.4277248170       -2.0831196602
C            -4.6011257086        6.7187919011       -4.0904002997
H            -3.9016954506        6.1470031610       -4.7341669290
C            -5.9472474256        5.9877229415       -4.0711145620
H            -6.6545215568        6.5503739224       -3.4253523504
O            -5.7358406711        4.6662025069       -3.5480854097
C            -6.5423579124        5.8519991329       -5.4495647038
H            -6.4756918897        6.8310885690       -5.9529536139
H            -5.9570577018        5.1088206246       -6.0227473333
O            -7.9089150966        5.4259785481       -5.3534894460
H            -8.2581003824        5.4269504261       -6.2848430663
O            -4.8062211057        8.0335232410       -4.5976850342
H            -3.9432112031        8.5205733919       -4.5025071927
O            -2.7339469653        7.3269246600       -2.7457374804
H            -2.3614222755        7.3948069776       -1.8125835620
O            -3.7162182827        5.6924903030       -0.6404617428
C            -3.3282490721        4.6614883714        0.2206366664
H            -3.1253394384        3.7133495821       -0.3137785771
C            -2.0922711757        5.1372363215        0.9824590259
H            -2.2695266227        6.1726026201        1.3145508961
C            -1.7597647304        4.2545480125        2.1733566971
H            -1.3717663652        3.2792528558        1.8178387527
C            -2.9932100894        3.9930531245        3.0264378017
H            -3.2863185222        4.9466552379        3.5140982273
C            -4.1503079998        3.5237218508        2.1473594513
H            -3.8900105704        2.5543239185        1.6866870688
O            -4.4088427281        4.5003273032        1.1268976997
C            -5.4382127248        3.3978799948        2.9419542052
H            -5.6477337119        4.3738455027        3.4262866516
H            -5.2890723920        2.6412404760        3.7260829719
O            -6.5474069262        2.9783317291        2.1496276894
H            -6.6690199981        3.6705542857        1.4453361267
O            -2.7303245574        2.9859115817        4.0011558493
H            -1.9709372502        3.3161442367        4.5530457259
O            -0.8058999628        4.8963518596        3.0221613268
H             0.0118972247        5.0618879344        2.4799764633
O            -0.9420329344        5.0821834295        0.1056547405
C            -0.5499142155        6.2165066577       -0.5331262148
C             0.6182015507        5.9819260330       -1.3683683743
H             0.9878950817        4.9567763744       -1.4549525925
C             1.2154368396        7.0356330513       -1.9824045806
H             0.7923268234        8.0278382552       -1.7804687048
C             2.3542052453        7.0238945893       -2.8677953598
C             2.9161554189        8.2610340865       -3.2266610027
H             2.4946314588        9.1939216896       -2.8424269575
C             4.0118328119        8.3144619359       -4.0770659539
C             4.5838932307        7.1432000510       -4.5920406713
C             4.0005093971        5.8915545385       -4.2567207837
C             2.9090685536        5.8363711997       -3.3969295110
H             2.4725418790        4.8728734445       -3.1302806186
O             4.6069451922        4.8154724305       -4.8284272540
C             3.9519793152        3.5537298305       -4.6612408314
H             4.5749402098        2.8300856911       -5.2008280912
H             2.9316198552        3.5918048626       -5.0795072262
H             3.9009237443        3.2682166996       -3.5990012566
O             5.6500146347        7.1501541425       -5.4272646656
H             6.1987643596        7.9886888089       -5.2628377255
O             4.5438236437        9.5363331846       -4.4702817309
C             3.8212807352       10.0875014986       -5.5990148580
H             2.7652549698       10.2551724960       -5.3296753478
H             3.8812791001        9.4034623916       -6.4627265297
H             4.3110118184       11.0427747188       -5.8335623201
O            -1.1491866730        7.3031427635       -0.3983515357
C            -4.9085912018        0.9917689349       -0.1038504607
C            -3.6442074219        1.2038626322       -0.7231096961
H            -3.5690352650        1.7269906017       -1.6773221028
C            -2.4844856203        0.7173696328       -0.1416331177
C            -2.5696814310       -0.0008906091        1.1139112680
C            -3.8177299839       -0.1358314925        1.7567429408
H            -3.8320421479       -0.5522329781        2.7675773165
C            -4.9692360950        0.3047669017        1.1420416293
H            -5.9226381301        0.2099029668        1.6617092789
O            -1.4575530696       -0.4775121295        1.6048756084
O            -1.2675278040        0.8668773033       -0.6479332801
O            -9.9996735482        3.2027418581       -3.2082473077
C           -11.1734998725        3.4041068454       -3.9448391359
H           -12.0180626566        3.6932347460       -3.2882519093
O           -11.4848341859        2.1818358446       -4.6074394007
C           -12.7050407924        2.2830197926       -5.3729254442
H           -13.5217628778        2.6299614586       -4.7094656510
C           -12.5086546194        3.2967576037       -6.4991562988
H           -11.7024696003        2.9346531087       -7.1705959575
C           -12.0698228764        4.6351551214       -5.9107167533
H           -12.9111247682        5.0449192612       -5.3137763571
C           -10.8565177717        4.4642582970       -4.9980833035
H           -10.0171859853        4.0682037935       -5.5979350970
O           -10.5151921315        5.7151405916       -4.4202324906
H            -9.5136527189        5.7918840733       -4.4929480020
O           -11.7681614863        5.4967021831       -7.0028894918
H           -11.5497995005        6.3879237988       -6.6170159435
O           -13.7402495505        3.4114641127       -7.2050888678
H           -13.6003371530        4.0933848559       -7.9170195963
C           -13.0177063173        0.8804923871       -5.8536398435
H           -12.1954591348        0.5308577281       -6.5104167813
H           -13.9445067239        0.9143905004       -6.4466706962
O           -13.2224703338       -0.0124617595       -4.7618227410
H           -12.3286950295       -0.1239885260       -4.3248649897
O           -11.8752844886       -0.2242205528       -0.4360050909
H           -11.6257471303       -0.8981070275        0.2589540820
C             5.0068119904       -9.6448762101       -0.8373916967
C             4.2595706877      -10.3336147514       -1.8169828244
H             4.6851901763      -11.2403396794       -2.2475473839
C             3.0546577212       -9.8060842228       -2.2424327721
C             2.5495630631       -8.5998239124       -1.6862669745
C             3.3590733479       -7.9307724856       -0.7495086493
C             4.5711800875       -8.4322915556       -0.2950976627
H             5.1761633464       -7.8749212847        0.4214047281
O             2.9768380536       -6.7059807656       -0.2866851501
C             1.8212764043       -6.0944235462       -0.6717624142
C             0.9384200968       -6.8138898265       -1.5280466055
C             1.3036750083       -8.0409268121       -2.0365040933
H             0.6534537720       -8.5802656824       -2.7251771839
O            -0.2695249450       -6.2128668007       -1.7750138170
C            -1.3494498066       -7.0243018971       -2.1769568904
H            -1.3971894292       -7.9427442894       -1.5544429126
C            -2.6140172812       -6.1747879924       -2.0120689078
H            -2.4304396669       -5.1812523714       -2.4621123935
C            -3.8056612770       -6.8355867654       -2.7048199019
H            -4.0818843184       -7.7366848665       -2.1175094805
C            -3.4714491664       -7.3096053055       -4.1148494056
H            -3.2700746208       -6.4254107953       -4.7539451647
C            -2.2044316811       -8.1686404634       -4.0603380238
H            -2.3893430017       -9.0405596260       -3.3980184187
O            -1.1409812143       -7.3567023298       -3.5349801807
C            -1.7830258686       -8.6669782580       -5.4198998554
H            -2.6768226532       -9.0462095523       -5.9424265653
H            -1.3579398995       -7.8230413871       -5.9954210072
O            -0.8044500947       -9.7084559619       -5.2840999604
H            -0.6869572231      -10.0866693609       -6.1963924616
O            -4.5347855903       -8.0945532469       -4.6450483696
H            -5.3664198128       -7.5545203198       -4.5558257524
O            -4.9098424469       -5.9433046493       -2.7952436115
H            -5.1660103794       -5.6578105761       -1.8636734391
O            -3.0398916381       -6.0386708918       -0.6566060771
C            -2.3199534870       -5.2137186653        0.2132547662
H            -1.5833151169       -4.5785589989       -0.3151483772
C            -3.3236868061       -4.3595349341        0.9862700124
H            -4.1430299757       -5.0114073232        1.3282508745
C            -2.6926449492       -3.6464524757        2.1700717944
H            -2.0196698368       -2.8448231267        1.8064812743
C            -1.8752364494       -4.6085240219        3.0199241959
H            -2.5737810519       -5.3170396646        3.5128152505
C            -0.9195653783       -5.4049600390        2.1335322248
H            -0.1941775194       -4.7145242247        1.6697676580
O            -1.6626229432       -6.0927936581        1.1145996240
C            -0.1879149182       -6.4802561576        2.9179604697
H            -0.9404565191       -7.1382857415        3.3989422325
H             0.4062669246       -5.9923743449        3.7046316237
O             0.7119024614       -7.2431436880        2.1158046439
H             0.1603085019       -7.6849639062        1.4154493947
O            -1.1050276023       -3.9010073376        3.9894572346
H            -1.7465212074       -3.3613710201        4.5256862446
O            -3.7022570588       -3.1038484442        3.0237528076
H            -4.2216080734       -2.4483326954        2.4840125678
O            -3.8399419006       -3.3202296827        0.1206275670
C            -5.0137612001       -3.5446942506       -0.5264862748
C            -5.4019413477       -2.4117940421       -1.3530765526
H            -4.7040603466       -1.5744928881       -1.4380715719
C            -6.6160009131       -2.4266523143       -1.9618477008
H            -7.2576997613       -3.2933311870       -1.7579336716
C            -7.1871561989       -1.4407785196       -2.8463481892
C            -8.5418603036       -1.5845466338       -3.1930680530
H            -9.1296658360       -2.4186363598       -2.8000563671
C            -9.1508843341       -0.6704550317       -4.0418369783
C            -8.4336829746        0.4115911178       -4.5705495841
C            -7.0556046074        0.5436363190       -4.2486550074
C            -6.4479154692       -0.3650082224       -3.3880462755
H            -5.3934904150       -0.2534808959       -3.1311173133
O            -6.4391299594        1.6066294981       -4.8330596898
C            -5.0193488425        1.6843385064       -4.6698305650
H            -4.7133387609        2.5816534490       -5.2209380954
H            -4.5350374069        0.7808495907       -5.0781505038
H            -4.7461392528        1.7988759166       -3.6093116057
O            -8.9878988743        1.3204714618       -5.4082347238
H            -9.9856818752        1.3777742015       -5.2271919182
O           -10.4802112084       -0.8278436817       -4.4147043800
C           -10.6061022223       -1.6926875196       -5.5703457813
H           -10.1911907724       -2.6896165077       -5.3471156141
H           -10.0783760557       -1.2562679355       -6.4357544995
H           -11.6831409121       -1.7645845116       -5.7763188565
O            -5.6481073069       -4.6136907117       -0.4060282260
C             1.6435978286       -4.8002533651       -0.1132011179
C             0.8281306724       -3.8112022502       -0.7329110476
H             0.3505673462       -4.0029408141       -1.6944304105
C             0.6546765197       -2.5684655065       -0.1448607912
C             1.3077491373       -2.2857541796        1.1168073950
C             2.0545867339       -3.2969357959        1.7566575563
H             2.4128597595       -3.1065410328        2.7720924897
C             2.2622092570       -4.5100920760        1.1361696469
H             2.8251111966       -5.2864202445        1.6549162133
O             1.1497586766       -1.0877372778        1.6130217414
O            -0.0888670806       -1.5928635790       -0.6497167045
O             2.2630597011      -10.3133712156       -3.2339036574
C             2.7005733079      -11.4184960252       -3.9746722334
H             2.8964244758      -12.2897889260       -3.3183550723
O             3.9029629613      -11.0462386685       -4.6405945268
C             4.4534828453      -12.1435652138       -5.3996446023
H             4.5835350069      -13.0181935327       -4.7316325347
C             3.4837283210      -12.5133757194       -6.5201533589
H             3.3672545348      -11.6433203898       -7.1990230238
C             2.1151307152      -12.8373124841       -5.9253014221
H             2.2118639675      -13.7628395794       -5.3200349843
C             1.6250315774      -11.7095709971       -5.0184547860
H             1.5074278062      -10.7914003926       -5.6227725556
O             0.3924691132      -12.0862387033       -4.4231557159
H            -0.1815558520      -11.2619810894       -4.4109559564
O             1.2257288876      -13.0474987620       -7.0162953057
H             0.3629142539      -13.3634941893       -6.6344082350
O             4.0279862996      -13.6292318259       -7.2177883532
H             3.3678243356      -13.8775113551       -7.9206865309
C             5.8141735898      -11.6845785000       -5.8807406377
H             5.6894753641      -10.7956118664       -6.5319272402
H             6.2628269026      -12.4937708716       -6.4769644200
O             6.6831932265      -11.4066803176       -4.7854589622
H             6.3176365885      -10.5840683513       -4.3466273178
O             6.1886709618      -10.2156232265       -0.4981025816
H             6.6525250290       -9.6667949113        0.1968973493
C             5.7973764445        9.1548483601       -0.8421960615
C             6.7698710919        8.8542609711       -1.8204137440
H             7.3398728228        9.6774772586       -2.2517999874
C             6.9206261762        7.5464593780       -2.2422015206
C             6.1271376786        6.5058724417       -1.6873253342
C             5.1386398016        6.8692365935       -0.7542196167
C             4.9666298952        8.1699112475       -0.2996321607
H             4.1777814136        8.4175776091        0.4120634344
O             4.2706419216        5.9228718305       -0.2936228434
C             4.3232351203        4.6154945812       -0.6784250082
C             5.3961780436        4.2133133161       -1.5260663253
C             6.2740370406        5.1466191207       -2.0316538244
H             7.0747198728        4.8550324617       -2.7110121609
O             5.4871519861        2.8669203311       -1.7679886258
C             6.7297305094        2.3373268474       -2.1684062451
H             7.5485275119        2.7489552088       -1.5409644401
C             6.6150763332        0.8169766086       -2.0113126866
H             5.6551231106        0.4932057343       -2.4550866413
C             7.7677256047        0.1050653106       -2.7176281971
H             8.6937053596        0.2986501760       -2.1361184482
C             8.0078471783        0.6405286326       -4.1251615567
H             7.1320369555        0.3949932987       -4.7605952764
C             8.1447589012        2.1649828843       -4.0545553305
H             8.9959865255        2.4184242328       -3.3878423930
O             6.9178831099        2.6927320024       -3.5238503471
C             8.3809010679        2.7903599887       -5.4072687299
H             9.1366455332        2.1872678633       -5.9368551814
H             7.4358518920        2.7735399898       -5.9824160626
O             8.8408144631        4.1421916562       -5.2594110762
H             9.1750792365        4.4128497927       -6.1561960357
O             9.2056063853        0.0962750757       -4.6698604653
H             9.1389827566       -0.8935006444       -4.5844229108
O             7.5263339725       -1.2931028419       -2.8158652185
H             7.4248918638       -1.6639847765       -1.8844938435
O             6.7137495403        0.3725806465       -0.6585237988
C             5.6406912996        0.5829901106        0.2130792794
H             4.7207310606        0.8990582548       -0.3146694443
C             5.4093560051       -0.7123566549        0.9888287978
H             6.3873125894       -1.0909875474        1.3260308491
C             4.4817843738       -0.5252263005        2.1772380075
H             3.4475364694       -0.3536035199        1.8194239832
C             4.8998255737        0.6701205099        3.0210251136
H             5.8672261720        0.4298082710        3.5102905591
C             5.1002232876        1.8942141935        2.1297092186
H             4.1372453348        2.1690666800        1.6652547773
O             6.0696933228        1.5958099569        1.1120086777
C             5.6594699617        3.0699933478        2.9109759076
H             6.6054997688        2.7519681963        3.3952914984
H             4.9373041694        3.3403777203        3.6953816603
O             5.8686711861        4.2287787073        2.1059176090
H             6.5276550973        3.9705866088        1.4066421847
O             3.9035032378        0.9770706361        3.9942479832
H             3.7709934274        0.1526361564        4.5358222701
O             4.5324815454       -1.6679666549        3.0342191794
H             4.2208453461       -2.4479216672        2.5000839497
O             4.7673247714       -1.6825585631        0.1269564606
C             5.5482784240       -2.5800320768       -0.5287267689
C             4.7622836838       -3.4786589233       -1.3600917625
H             3.6874329703       -3.2954371515       -1.4417260774
C             5.3868269114       -4.5158892336       -1.9748312177
H             6.4592193500       -4.6311406474       -1.7712221340
C             4.8271291067       -5.5071707248       -2.8609543612
C             5.6380353765       -6.6026050347       -3.2036476364
H             6.6535214218       -6.6853812019       -2.8064466457
C             5.1626527366       -7.5912084692       -4.0540032903
C             3.8680918608       -7.5235445092       -4.5863687915
C             3.0541851323       -6.4031585164       -4.2664925360
C             3.5267440952       -5.4167519150       -3.4068240653
H             2.8942153393       -4.5644930503       -3.1542487191
O             1.8290871753       -6.4091946824       -4.8588729641
C             1.0439111209       -5.2219726678       -4.7082034260
H             0.1291764451       -5.4059653273       -5.2850591380
H             1.5893033644       -4.3461624750       -5.0994100788
H             0.7797461706       -5.0500266698       -3.6532860796
O             3.3700007568       -8.4591765148       -5.4295538571
H             3.8313112770       -9.3468197027       -5.2544254672
O             5.9715907904       -8.6561718239       -4.4296035203
C             6.8688935292       -8.2869126251       -5.5050758510
H             7.5237083569       -7.4585799192       -5.1877173483
H             6.2940897054       -7.9858164421       -6.3975777572
H             7.4658859847       -9.1842013051       -5.7196368017
O             6.7925789201       -2.5920827777       -0.4132108380
C             3.2934954017        3.8090027939       -0.1246560374
C             2.8691053920        2.5935882260       -0.7340308455
H             3.2882745819        2.2687944333       -1.6866919946
C             1.8930905138        1.8081929557       -0.1426505599
C             1.3015912642        2.2387469923        1.1072115871
C             1.7675268571        3.4149873186        1.7306518678
H             1.3887801284        3.6471547004        2.7295601042
C             2.7107648329        4.2066357745        1.1126110956
H             3.0762039068        5.0982930224        1.6226591096
O             0.3578912137        1.4891820472        1.6102142264
O             1.4496042237        0.6589789614       -0.6353095677
O             7.7624346742        7.1108963935       -3.2266929450
C             8.5334865353        8.0316040494       -3.9471911554
H             9.1746396898        8.6344884261       -3.2738174996
O             7.6391340952        8.8914966296       -4.6461881988
C             8.3459532071        9.9004119930       -5.3995444255
H             9.0255665404       10.4509913645       -4.7192662997
C             9.1742128353        9.2253432649       -6.4914488388
H             8.4914862221        8.6884287377       -7.1822381953
C            10.1117733909        8.1999918992       -5.8597055195
H            10.8548775425        8.7449920126       -5.2412023723
C             9.3461322355        7.2309313975       -4.9617327609
H             8.6220974593        6.6677954335       -5.5789565082
O            10.2659660916        6.3513687524       -4.3323303568
H             9.8357131458        5.4436503753       -4.3319577605
O            10.7590372053        7.5120651927       -6.9242323238
H            11.4454773480        6.9195757609       -6.5145407423
O             9.8973127352       10.2393801562       -7.1821834135
H            10.4588748697        9.7773810306       -7.8624609580
C             7.2900555164       10.8540334960       -5.9194233068
H             6.5919632992       10.2994011038       -6.5789835267
H             7.7875709810       11.6334472541       -6.5166660186
O             6.5967133423       11.4904142618       -4.8491340508
H             6.0516761045       10.7739927244       -4.4098446813
O             5.6937211831       10.4636544340       -0.5045067306
H             4.9807271581       10.5887482384        0.1849650994
Al            0.0265904503       -0.0260752707        0.4301885964
K_POINTS {gamma}

